StringID   Type       x          y          demand     ReadyTime  DueDate    ServiceTime  wp1 wp2 wp3 wp4 wp5 wp6 wp7 wp8 wp9 wp10 wp11 wp12 wp13 wp14 wp15 wp16 wp17 wp18 wp19 wp20 wp21 wp22 wp23 wp24 wp25 wp26 wp27 wp28 wp29 wp30 wp31 wp32 wp33 wp34 wp35 wp36 wp37 wp38 wp39 wp40 wp41 wp42 wp43 wp44 wp45 wp46 wp47 wp48 wp49 wp50 wp51 wp52 wp53 wp54 wp55 wp56 wp57 
D0         d          40.0       50.0       0.0        0.0        3390.0     0.0          6   7   8   9   10  11  12  13  14  15   16   17   18   19   20   21   22   23   24   1    2    3    4    5    6    7    8    9    10   11   12   13   14   15   16   17   18   19   20   21   22   23   24   1    2    3    4    5    6    7    8    9    10   11   12   13   14
S0         f          40.0       50.0       0.0        0.0        3390.0     0.0          0.2 0.4 0.6 1   1   1   1   1   1   1    1    0.6  0.4  0.2  0    0    0    0    0    0    0    0    0    0    0    0.1  0.2  0.3  0.3  0.2  0.2  0.2  0.2  0.3  0.3  0.2  0.1  0    0    0    0    0    0    0    0    0    0    0    0.2  0.4  0.6  1    1    1    1    1    1
S1         f          73.0       52.0       0.0        0.0        3390.0     0.0          0.2 0.4 0.6 1   1   1   1   1   1   1    1    0.6  0.4  0.2  0    0    0    0    0    0    0    0    0    0    0    0.1  0.2  0.3  0.3  0.2  0.2  0.2  0.2  0.3  0.3  0.2  0.1  0    0    0    0    0    0    0    0    0    0    0    0.2  0.4  0.6  1    1    1    1    1    1
S2         f          90.0       55.0       0.0        0.0        3390.0     0.0          0.2 0.4 0.6 1   1   1   1   1   1   1    1    0.6  0.4  0.2  0    0    0    0    0    0    0    0    0    0    0    0.1  0.2  0.3  0.3  0.2  0.2  0.2  0.2  0.3  0.3  0.2  0.1  0    0    0    0    0    0    0    0    0    0    0    0.2  0.4  0.6  1    1    1    1    1    1
S3         f          55.0       79.0       0.0        0.0        3390.0     0.0          0.2 0.4 0.6 1   1   1   1   1   1   1    1    0.6  0.4  0.2  0    0    0    0    0    0    0    0    0    0    0    0.1  0.2  0.3  0.3  0.2  0.2  0.2  0.2  0.3  0.3  0.2  0.1  0    0    0    0    0    0    0    0    0    0    0    0.2  0.4  0.6  1    1    1    1    1    1
S4         f          69.0       89.0       0.0        0.0        3390.0     0.0          0.2 0.4 0.6 1   1   1   1   1   1   1    1    0.6  0.4  0.2  0    0    0    0    0    0    0    0    0    0    0    0.1  0.2  0.3  0.3  0.2  0.2  0.2  0.2  0.3  0.3  0.2  0.1  0    0    0    0    0    0    0    0    0    0    0    0.2  0.4  0.6  1    1    1    1    1    1
S5         f          32.0       80.0       0.0        0.0        3390.0     0.0          0   0.1 0.2 0.3 0.3 0.2 0.2 0.2 0.2 0.3  0.3  0.2  0.1  0.0  0    0    0    0    0    0    0    0    0    0    0.2  0.4  0.6  1    1    1    1    1    1    1    1    0.6  0.4  0.2  0    0    0    0    0    0    0    0    0    0    0.2  0.4  0.6  1    1    1    1    1    1
S6         f          39.0       96.0       0.0        0.0        3390.0     0.0          0   0.1 0.2 0.3 0.3 0.2 0.2 0.2 0.2 0.3  0.3  0.2  0.1  0.0  0    0    0    0    0    0    0    0    0    0    0.2  0.4  0.6  1    1    1    1    1    1    1    1    0.6  0.4  0.2  0    0    0    0    0    0    0    0    0    0    0.2  0.4  0.6  1    1    1    1    1    1
S7         f          23.0       80.0       0.0        0.0        3390.0     0.0          0.2 0.4 0.6 1   1   1   1   1   1   1    1    0.6  0.4  0.2  0    0    0    0    0    0    0    0    0    0    0    0.1  0.2  0.3  0.3  0.2  0.2  0.2  0.2  0.3  0.3  0.2  0.1  0    0    0    0    0    0    0    0    0    0    0    0.2  0.4  0.6  1    1    1    1    1    1
S8         f          4.0        83.0       0.0        0.0        3390.0     0.0          0.2 0.4 0.6 1   1   1   1   1   1   1    1    0.6  0.4  0.2  0    0    0    0    0    0    0    0    0    0    0    0.1  0.2  0.3  0.3  0.2  0.2  0.2  0.2  0.3  0.3  0.2  0.1  0    0    0    0    0    0    0    0    0    0    0    0.2  0.4  0.6  1    1    1    1    1    1
S9         f          18.0       58.0       0.0        0.0        3390.0     0.0          0   0.1 0.2 0.3 0.3 0.2 0.2 0.2 0.2 0.3  0.3  0.2  0.1  0.0  0    0    0    0    0    0    0    0    0    0    0.2  0.4  0.6  1    1    1    1    1    1    1    1    0.6  0.4  0.2  0    0    0    0    0    0    0    0    0    0    0.2  0.4  0.6  1    1    1    1    1    1
S10        f          1.0        56.0       0.0        0.0        3390.0     0.0          0   0.1 0.2 0.3 0.3 0.2 0.2 0.2 0.2 0.3  0.3  0.2  0.1  0.0  0    0    0    0    0    0    0    0    0    0    0.2  0.4  0.6  1    1    1    1    1    1    1    1    0.6  0.4  0.2  0    0    0    0    0    0    0    0    0    0    0.2  0.4  0.6  1    1    1    1    1    1
S11        f          13.0       31.0       0.0        0.0        3390.0     0.0          0.2 0.4 0.6 1   1   1   1   1   1   1    1    0.6  0.4  0.2  0    0    0    0    0    0    0    0    0    0    0    0.1  0.2  0.3  0.3  0.2  0.2  0.2  0.2  0.3  0.3  0.2  0.1  0    0    0    0    0    0    0    0    0    0    0    0.2  0.4  0.6  1    1    1    1    1    1  
S12        f          -5.0       38.0       0.0        0.0        3390.0     0.0          0.2 0.4 0.6 1   1   1   1   1   1   1    1    0.6  0.4  0.2  0    0    0    0    0    0    0    0    0    0    0    0.1  0.2  0.3  0.3  0.2  0.2  0.2  0.2  0.3  0.3  0.2  0.1  0    0    0    0    0    0    0    0    0    0    0    0.2  0.4  0.6  1    1    1    1    1    1
S13        f          26.0       37.0       0.0        0.0        3390.0     0.0          0.2 0.4 0.6 1   1   1   1   1   1   1    1    0.6  0.4  0.2  0    0    0    0    0    0    0    0    0    0    0    0.1  0.2  0.3  0.3  0.2  0.2  0.2  0.2  0.3  0.3  0.2  0.1  0    0    0    0    0    0    0    0    0    0    0    0.2  0.4  0.6  1    1    1    1    1    1
S14        f          28.0       13.0       0.0        0.0        3390.0     0.0          0   0.1 0.2 0.3 0.3 0.2 0.2 0.2 0.2 0.3  0.3  0.2  0.1  0.0  0    0    0    0    0    0    0    0    0    0    0.2  0.4  0.6  1    1    1    1    1    1    1    1    0.6  0.4  0.2  0    0    0    0    0    0    0    0    0    0    0.2  0.4  0.6  1    1    1    1    1    1
S15        f          39.0       31.0       0.0        0.0        3390.0     0.0          0.2 0.4 0.6 1   1   1   1   1   1   1    1    0.6  0.4  0.2  0    0    0    0    0    0    0    0    0    0    0    0.1  0.2  0.3  0.3  0.2  0.2  0.2  0.2  0.3  0.3  0.2  0.1  0    0    0    0    0    0    0    0    0    0    0    0.2  0.4  0.6  1    1    1    1    1    1
S16        f          48.0       11.0       0.0        0.0        3390.0     0.0          0   0.1 0.2 0.3 0.3 0.2 0.2 0.2 0.2 0.3  0.3  0.2  0.1  0.0  0    0    0    0    0    0    0    0    0    0    0.2  0.4  0.6  1    1    1    1    1    1    1    1    0.6  0.4  0.2  0    0    0    0    0    0    0    0    0    0    0.2  0.4  0.6  1    1    1    1    1    1
S17        f          59.0       17.0       0.0        0.0        3390.0     0.0          0.2 0.4 0.6 1   1   1   1   1   1   1    1    0.6  0.4  0.2  0    0    0    0    0    0    0    0    0    0    0    0.1  0.2  0.3  0.3  0.2  0.2  0.2  0.2  0.3  0.3  0.2  0.1  0    0    0    0    0    0    0    0    0    0    0    0.2  0.4  0.6  1    1    1    1    1    1
S18        f          73.0       23.0       0.0        0.0        3390.0     0.0          0.2 0.4 0.6 1   1   1   1   1   1   1    1    0.6  0.4  0.2  0    0    0    0    0    0    0    0    0    0    0    0.1  0.2  0.3  0.3  0.2  0.2  0.2  0.2  0.3  0.3  0.2  0.1  0    0    0    0    0    0    0    0    0    0    0    0.2  0.4  0.6  1    1    1    1    1    1
S19        f          74.0       32.0       0.0        0.0        3390.0     0.0          0.2 0.4 0.6 1   1   1   1   1   1   1    1    0.6  0.4  0.2  0    0    0    0    0    0    0    0    0    0    0    0.1  0.2  0.3  0.3  0.2  0.2  0.2  0.2  0.3  0.3  0.2  0.1  0    0    0    0    0    0    0    0    0    0    0    0.2  0.4  0.6  1    1    1    1    1    1
S20        f          90.0       44.0       0.0        0.0        3390.0     0.0          0.2 0.4 0.6 1   1   1   1   1   1   1    1    0.6  0.4  0.2  0    0    0    0    0    0    0    0    0    0    0    0.1  0.2  0.3  0.3  0.2  0.2  0.2  0.2  0.3  0.3  0.2  0.1  0    0    0    0    0    0    0    0    0    0    0    0.2  0.4  0.6  1    1    1    1    1    1
C53        c          44.0       5.0        20.0       0.0        3254.0     90.0       
C54        c          42.0       10.0       40.0       0.0        3259.0     90.0       
C55        c          42.0       15.0       10.0       0.0        3264.0     90.0       
C56        c          40.0       5.0        30.0       0.0        3255.0     90.0       
C57        c          38.0       15.0       40.0       0.0        3264.0     90.0       
C58        c          38.0       5.0        30.0       0.0        3254.0     90.0       
C59        c          38.0       10.0       10.0       0.0        3259.0     90.0       
C60        c          35.0       5.0        20.0       0.0        3254.0     90.0                
C28        c          4.0        55.0       20.0       0.0        3263.0     90.0       
C29        c          20.0       50.0       10.0       2642.0     2802.0     90.0       
C30        c          20.0       55.0       10.0       0.0        3279.0     90.0       
C31        c          10.0       35.0       20.0       2260.0     2420.0     90.0       
C32        c          10.0       40.0       30.0       2447.0     2607.0     90.0       
C33        c          8.0        40.0       40.0       0.0        3266.0     90.0       
C34        c          8.0        45.0       20.0       0.0        3267.0     90.0       
C35        c          5.0        35.0       10.0       0.0        3261.0     90.0       
C36        c          5.0        45.0       10.0       0.0        3264.0     90.0       
C37        c          2.0        40.0       20.0       0.0        3260.0     90.0       
C38        c          0.0        40.0       30.0       1977.0     2137.0     90.0       
C39        c          0.0        45.0       20.0       1882.0     2042.0     90.0     
C61        c          50.0       30.0       10.0       0.0        3277.0     90.0       
C62        c          50.0       35.0       20.0       0.0        3281.0     90.0       
C63        c          50.0       40.0       50.0       0.0        3285.0     90.0       
C64        c          48.0       30.0       10.0       0.0        3278.0     90.0       
C65        c          44.0       25.0       10.0       0.0        3274.0     90.0       
C66        c          47.0       35.0       10.0       0.0        3283.0     90.0       
C67        c          47.0       40.0       10.0       0.0        3287.0     90.0       
C68        c          42.0       30.0       10.0       0.0        3279.0     90.0       
C69        c          45.0       35.0       10.0       0.0        3284.0     90.0           
C72        c          53.0       30.0       10.0       2432.0     2592.0     90.0       
C57        c          38.0       15.0       40.0       0.0        3264.0     90.0 
C55        c          42.0       15.0       10.0       0.0        3264.0     90.0          
     

F Vehicle fuel tank capacity /12/
Q Vehicle load capacity /700.0/
r fuel consumption rate /0.155/
g inverse refueling rate /0.5/
v average Velocity /1.0/
